311,286
531,406
652,402
782,93
718,292
672,434
732,731
742,791
705,423
698,430
611,-38
512,529
744,343
558,237
760,-97
888,438
390,617
1191,406
1081,202
620,21
364,-30
1184,485
681,676
237,476
1081,202
441,406
237,336
776,593
1095,471
225,258
267,341
296,345
857,164
